p cnf 20 10
a 1 2 0
e 3 4 0
a 5 6 0
e 7 8 0
a 9 10 0
e 11 12 0
a 13 0
e 14 0
a 15 16 0
e 17 0
a 18 0
e 19 20 0
9 -4 18 20 0
19 -7 -14 -10 0
8 3 -7 0
-4 -11 16 8 -2 0
7 -2 18 0
14 -20 13 7 0
15 -14 -7 8 -1 0
12 -15 -2 18 0
-3 -17 6 9 12 0
-18 -4 -5 16 0
